c instancia_03  vars=15  clausulas=25  k=2
p cnf 15 25
-12 7 0
6 -15 0
-2 1 0
-5 -14 0
-8 11 0
8 -9 0
9 -1 0
-11 4 0
1 10 0
-7 2 0
9 -3 0
14 1 0
9 8 0
15 -3 0
6 -1 0
-12 13 0
-14 3 0
-15 -13 0
5 -11 0
3 -12 0
-5 1 0
-11 -7 0
2 -15 0
14 10 0
-5 -7 0
